# Solution for model sublimation_srl_ilp
# Objective value = 1.5122350554254536e+01
Z_320_0_0 1
Z_320_0_1 0
Z_320_0_2 0
Z_320_0_3 0
Z_320_0_4 0
Z_320_1_0 0
Z_320_1_1 0
Z_320_1_2 1
Z_320_1_3 0
Z_320_1_4 0
Z_57_0_0 0
Z_57_0_1 1
Z_57_0_2 0
Z_57_0_3 0
Z_57_0_4 0
Z_687_0_0 0
Z_687_0_1 0
Z_687_0_2 0
Z_687_0_3 0
Z_687_0_4 1
Z_387_0_0 0
Z_387_0_1 1
Z_387_0_2 0
Z_387_0_3 0
Z_387_0_4 0
Z_79_1_0 0
Z_79_1_1 0
Z_79_1_2 0
Z_79_1_3 0
Z_79_1_4 1
Z_79_0_0 0
Z_79_0_1 0
Z_79_0_2 0
Z_79_0_3 0
Z_79_0_4 1
Z_79_2_0 0
Z_79_2_1 0
Z_79_2_2 0
Z_79_2_3 0
Z_79_2_4 1
Z_79_9_0 0
Z_79_9_1 0
Z_79_9_2 1
Z_79_9_3 0
Z_79_9_4 0
Z_0_1_0 0
Z_0_1_1 0
Z_0_1_2 0
Z_0_1_3 0
Z_0_1_4 1
Z_0_0_0 0
Z_0_0_1 0
Z_0_0_2 0
Z_0_0_3 0
Z_0_0_4 1
Z_0_6_0 0
Z_0_6_1 0
Z_0_6_2 1
Z_0_6_3 0
Z_0_6_4 0
Z_22_0_0 0
Z_22_0_1 0
Z_22_0_2 0
Z_22_0_3 1
Z_22_0_4 0
Z_259_0_0 1
Z_259_0_1 0
Z_259_0_2 0
Z_259_0_3 0
Z_259_0_4 0
Z_509_0_0 0
Z_509_0_1 0
Z_509_0_2 1
Z_509_0_3 0
Z_509_0_4 0
Z_722_2_0 0
Z_722_2_1 0
Z_722_2_2 0
Z_722_2_3 0
Z_722_2_4 1
Z_722_4_0 0
Z_722_4_1 0
Z_722_4_2 0
Z_722_4_3 1
Z_722_4_4 0
Z_722_0_0 0
Z_722_0_1 0
Z_722_0_2 0
Z_722_0_3 0
Z_722_0_4 1
Z_722_3_0 0
Z_722_3_1 0
Z_722_3_2 0
Z_722_3_3 0
Z_722_3_4 1
Z_722_1_0 0
Z_722_1_1 0
Z_722_1_2 1
Z_722_1_3 0
Z_722_1_4 0
Z_722_5_0 0
Z_722_5_1 0
Z_722_5_2 0
Z_722_5_3 0
Z_722_5_4 1
Z_697_0_0 0
Z_697_0_1 0
Z_697_0_2 0
Z_697_0_3 1
Z_697_0_4 0
Z_283_0_0 0
Z_283_0_1 0
Z_283_0_2 0
Z_283_0_3 1
Z_283_0_4 0
